Problem:    teste
Rows:       4
Columns:    2
Non-zeros:  8
Status:     OPTIMAL
Objective:  Z = 553.3333333 (MAXimum)

   No.   Row name   St   Activity     Lower bound   Upper bound    Marginal
------ ------------ -- ------------- ------------- ------------- -------------
     1 Z            B        553.333                             
     2 cobre        NU            26                          26       3.33333 
     3 zinco        NU            20                          20       23.3333 
     4 chumbo       B        24.6667                          25 

   No. Column name  St   Activity     Lower bound   Upper bound    Marginal
------ ------------ -- ------------- ------------- ------------- -------------
     1 xA           B        10.6667             0               
     2 xB           B        4.66667             0               

Karush-Kuhn-Tucker optimality conditions:

KKT.PE: max.abs.err = 3.55e-15 on row 2
        max.rel.err = 6.70e-17 on row 2
        High quality

KKT.PB: max.abs.err = 0.00e+00 on row 0
        max.rel.err = 0.00e+00 on row 0
        High quality

KKT.DE: max.abs.err = 0.00e+00 on column 0
        max.rel.err = 0.00e+00 on column 0
        High quality

KKT.DB: max.abs.err = 0.00e+00 on row 0
        max.rel.err = 0.00e+00 on row 0
        High quality

End of output
